firmware/ip/axis_signal_gen_v6/yosys/synchronizer_n/model/design_smt2.smt2
; SMT-LIBv2 description generated by Yosys 0.59+110 (git sha1 25ba41f42, aarch64-apple-darwin23.5-clang++ 18.1.8 -fPIC -O3)
; yosys-smt2-module synchronizer_n_sv
(declare-sort |synchronizer_n_sv_s| 0)
(declare-fun |synchronizer_n_sv_is| (|synchronizer_n_sv_s|) Bool)
(declare-fun |synchronizer_n_sv#0| (|synchronizer_n_sv_s|) Bool) ; \clk
; yosys-smt2-input clk 1
; yosys-smt2-wire clk 1
; yosys-smt2-clock clk posedge
; yosys-smt2-witness {"offset": 0, "path": ["\\clk"], "smtname": "clk", "smtoffset": 0, "type": "posedge", "width": 1}
; yosys-smt2-witness {"offset": 0, "path": ["\\clk"], "smtname": "clk", "smtoffset": 0, "type": "input", "width": 1}
(define-fun |synchronizer_n_sv_n clk| ((state |synchronizer_n_sv_s|)) Bool (|synchronizer_n_sv#0| state))
(declare-fun |synchronizer_n_sv#1| (|synchronizer_n_sv_s|) Bool) ; \data_in
; yosys-smt2-input data_in 1
; yosys-smt2-wire data_in 1
; yosys-smt2-witness {"offset": 0, "path": ["\\data_in"], "smtname": "data_in", "smtoffset": 0, "type": "input", "width": 1}
(define-fun |synchronizer_n_sv_n data_in| ((state |synchronizer_n_sv_s|)) Bool (|synchronizer_n_sv#1| state))
; yosys-smt2-anyinit synchronizer_n_sv#2 2 synchronizer_n_sv.sv:13.5-17.60
; yosys-smt2-witness {"offset": 0, "path": ["\\data_int_reg"], "smtname": 2, "smtoffset": 0, "type": "init", "width": 2}
(declare-fun |synchronizer_n_sv#2| (|synchronizer_n_sv_s|) (_ BitVec 2)) ; \data_int_reg
; yosys-smt2-register data_int_reg 2
; yosys-smt2-wire data_int_reg 2
(define-fun |synchronizer_n_sv_n data_int_reg| ((state |synchronizer_n_sv_s|)) (_ BitVec 2) (|synchronizer_n_sv#2| state))
; yosys-smt2-output data_out 1
; yosys-smt2-wire data_out 1
(define-fun |synchronizer_n_sv_n data_out| ((state |synchronizer_n_sv_s|)) Bool (= ((_ extract 1 1) (|synchronizer_n_sv#2| state)) #b1))
(declare-fun |synchronizer_n_sv#3| (|synchronizer_n_sv_s|) Bool) ; \rstn
; yosys-smt2-input rstn 1
; yosys-smt2-wire rstn 1
; yosys-smt2-witness {"offset": 0, "path": ["\\rstn"], "smtname": "rstn", "smtoffset": 0, "type": "input", "width": 1}
(define-fun |synchronizer_n_sv_n rstn| ((state |synchronizer_n_sv_s|)) Bool (|synchronizer_n_sv#3| state))
(define-fun |synchronizer_n_sv#4| ((state |synchronizer_n_sv_s|)) (_ BitVec 1) (bvnot (ite (|synchronizer_n_sv#0| state) #b1 #b0))) ; $auto$rtlil.cc:3347:Not$16
; yosys-smt2-assume 0 $auto$formalff.cc:987:execute$17
(define-fun |synchronizer_n_sv_u 0| ((state |synchronizer_n_sv_s|)) Bool (or (= ((_ extract 0 0) (|synchronizer_n_sv#4| state)) #b1) (not true))) ; $auto$formalff.cc:987:execute$17
(define-fun |synchronizer_n_sv#5| ((state |synchronizer_n_sv_s|)) (_ BitVec 2) (ite (|synchronizer_n_sv#3| state) (concat ((_ extract 0 0) (|synchronizer_n_sv#2| state)) (ite (|synchronizer_n_sv#1| state) #b1 #b0)) #b00)) ; $0\data_int_reg[1:0]
(define-fun |synchronizer_n_sv_a| ((state |synchronizer_n_sv_s|)) Bool true)
(define-fun |synchronizer_n_sv_u| ((state |synchronizer_n_sv_s|)) Bool 
  (|synchronizer_n_sv_u 0| state)
)
(define-fun |synchronizer_n_sv_i| ((state |synchronizer_n_sv_s|)) Bool true)
(define-fun |synchronizer_n_sv_h| ((state |synchronizer_n_sv_s|)) Bool true)
(define-fun |synchronizer_n_sv_t| ((state |synchronizer_n_sv_s|) (next_state |synchronizer_n_sv_s|)) Bool 
  (= (|synchronizer_n_sv#5| state) (|synchronizer_n_sv#2| next_state)) ; $procdff$12 \data_int_reg
) ; end of module synchronizer_n_sv
; yosys-smt2-topmod synchronizer_n_sv
; end of yosys output
